TITL RAP119_0m_a.res in P-1
    a.res
    created by SHELXL-2019/1 at 14:39:44 on 22-Sep-2023
REM Old TITL RAP119_0m in P-1
REM SHELXT solution in P-1
REM R1 0.149,  Rweak 0.007,  Alpha 0.047,  Orientation as input
REM Formula found by SHELXT:  C80
CELL  1.54178  12.3439  15.9803  16.5748  114.131   90.728  103.241
ZERR    2.000   0.0003   0.0004   0.0004    0.001    0.001    0.001
LATT  -1
SFAC C H
UNIT 156 0
LIST 6
TEMP -123
SIZE 0.089 0.10 0.286
L.S. 0
PLAN 5
WGHT    0.056200    0.636300
FVAR       0.15379
C1    1     1.0  1.1926  1.0855  11.00 0.05  
C2    1     0.3  0.0256  0.3659  11.00 0.05  
C3    1     0.5  0.6026  0.6707  11.00 0.05  
C4    1  0.3162  0.6407  0.6951  11.00 0.05  
C5    1  0.2333  0.4487  0.5976  11.00 0.05  
C6    1  0.0833  0.0772  0.6953  11.00 0.05  
C7    1  0.7833   0.641  1.0976  11.00 0.05  
C8    1  1.0167  0.9103  0.8293  11.00 0.05  
C9    1     0.9     1.0  1.1951  11.00 0.05  
C10   1  0.7333  0.6795   0.561  11.00 0.05  
C11   1     0.5  0.8718  1.0733  11.00 0.05  
C12   1  0.4333  0.7561  1.1706  11.00 0.05  
C13   1  0.6667  0.5385  0.6341  11.00 0.05  
C14   1     0.2  0.3846  0.6463  11.00 0.05  
C15   1     0.8  1.2692  1.1951  11.00 0.05  
C16   1  0.0333  0.3718  0.7317  11.00 0.05  
C17   1  1.1838  1.0259  0.9146  11.00 0.05  
C18   1  0.2838  0.2821  0.3171  11.00 0.05  
C19   1  0.6833  0.9615  0.8659  11.00 0.05  
C20   1  0.1167  0.5513  0.6585  11.00 0.05  
C21   1    0.15     0.5   0.878  11.00 0.05  
C22   1  0.5495  0.7561   1.122  11.00 0.05  
C23   1  0.1829  0.4744  0.4268  11.00 0.05  
C24   1  0.4833  0.4615  0.8535  11.00 0.05  
C25   1  0.3495  0.3077  0.4024  11.00 0.05  
C26   1  0.3833  0.5128   0.439  11.00 0.05  
C27   1     0.2  0.4872  0.8049  11.00 0.05  
C28   1    0.45  0.2436  0.2317  11.00 0.05  
C29   1     0.7  0.8718   0.622  11.00 0.05  
C30   1  0.4333  0.4615   1.122  11.00 0.05  
C31   1     0.7  0.9615  1.0122  11.00 0.05  
C32   1  0.2667  0.8974  0.6098  11.00 0.05  
C33   1  1.0333     1.0  0.9878  11.00 0.05  
C34   1     0.7  1.0125  0.9633  11.00 0.05  
C35   1  0.4333  0.7564  1.2439  11.00 0.05  
C36   1  0.4167     1.0  1.1585  11.00 0.05  
C37   1  0.9667  0.9359  0.9146  11.00 0.05  
C38   1     0.8  0.8974  1.2805  11.00 0.05  
C39   1  0.3833  0.1667  0.5366  11.00 0.05  
C40   1  0.0333  0.4615   0.878  11.00 0.05  
C41   1     0.3  0.4872  0.4756  11.00 0.05  
C42   1  0.1667  0.7179  0.7683  11.00 0.05  
C43   1  0.3167  0.1795  0.4878  11.00 0.05  
C44   1  0.7667  0.4106  0.5489  11.00 0.05  
C45   1  1.0667   0.859  1.0367  11.00 0.05  
C46   1  0.6333  0.6667  0.5976  11.00 0.05  
C47   1  0.7505  1.3336  1.2074  11.00 0.05  
C48   1  1.0167  1.2564  0.9635  11.00 0.05  
C49   1    0.15  0.4103  0.7195  11.00 0.05  
C50   1    0.35  0.7564  1.2927  11.00 0.05  
C51   1  0.2667  0.1154  0.4024  11.00 0.05  
C52   1    0.75  0.9615  0.6098  11.00 0.05  
C53   1    0.25  0.8077   0.561  11.00 0.05  
C54   1  0.8833  1.0897  1.2439  11.00 0.05  
C55   1     0.8  1.4103  1.2928  11.00 0.05  
C56   1  0.6838  0.8718  0.9878  11.00 0.05  
C57   1  0.2833  0.7179  0.7561  11.00 0.05  
C58   1    0.75  0.7692  1.0488  11.00 0.05  
C59   1  0.2167  0.2436  0.7316  11.00 0.05  
C60   1  0.9333  0.6667  0.4634  11.00 0.05  
C61   1     0.9   0.859   1.378  11.00 0.05  
C62   1  0.6838  0.4744  0.5488  11.00 0.05  
C63   1  0.2333  0.7179  1.1585  11.00 0.05  
C64   1  0.3333  0.2564  0.2439  11.00 0.05  
C65   1    0.95  1.1279   1.122  11.00 0.05  
C66   1     0.6  0.8974  0.4878  11.00 0.05  
C67   1  0.4333  0.6538  0.6585  11.00 0.05  
C68   1  0.8838  0.7051  0.9634  11.00 0.05  
C69   1  0.2171  0.5513  0.6465  11.00 0.05  
C70   1  0.2667  0.2821  0.5244  11.00 0.05  
C71   1     0.5  0.5641  0.8782  11.00 0.05  
C72   1    0.55  0.8205  0.5122  11.00 0.05  
C73   1  0.7333  0.6542  0.4634  11.00 0.05  
C74   1  1.1167  1.3462  1.1098  11.00 0.05  
C75   1     0.5  0.2051  0.8171  11.00 0.05  
C76   1     0.3  0.3462  0.4878  11.00 0.05  
C77   1  0.4167  0.8718  0.6829  11.00 0.05  
C78   1  0.8005  0.4747  1.0366  11.00 0.05  
C79   1  0.0662  0.0641  0.6098  11.00 0.05  
C80   1  0.5995  0.5256  1.2317  11.00 0.05  
C81   1  0.3671  0.0003  0.4146  11.00 0.05  
C82   1     0.4  0.0769     0.5  11.00 0.05  
C83   1     0.5  0.2692  0.3171  11.00 0.05  
C84   1  0.8333  0.6664  0.4267  11.00 0.05  
C85   1     1.0  0.8974  1.3415  11.00 0.05  
C86   1  0.8667  0.7821  1.0244  11.00 0.05  
C87   1  0.4833  0.9484  1.1585  11.00 0.05  
C88   1  0.5667  0.8077  1.0732  11.00 0.05  
C89   1  0.6167  0.6026  1.2073  11.00 0.05  
C90   1     0.5  0.6026  0.8171  11.00 0.05  
C91   1     1.0  0.6923   0.939  11.00 0.05  
C92   1  0.7167  1.1154  1.3171  11.00 0.05  
C93   1  0.4833  0.4103  0.7561  11.00 0.05  
C94   1  0.2833  0.5513  0.3415  11.00 0.05  
C95   1  0.4833  0.5513  0.7317  11.00 0.05  
C96   1  0.4667  0.5385  1.0976  11.00 0.05  
C97   1  1.1333  1.0638  0.9999  11.00 0.05  
C98   1  0.7167  0.6923  1.0854  11.00 0.05  
C99   1  0.8833  0.9359  1.2439  11.00 0.05  
C100  1     0.8  0.4872  0.7073  11.00 0.05  
C101  1  0.6167  0.6923   1.122  11.00 0.05  
C102  1  0.8995     0.5  1.0976  11.00 0.05  
C103  1  1.0667  1.2821  1.1463  11.00 0.05  
C104  1    0.75  0.5385  1.0366  11.00 0.05  
C105  1    0.45  0.8715     1.0  11.00 0.05  
C106  1     0.6  0.6026  0.6343  11.00 0.05  
C107  1  0.8667  1.2311  1.2317  11.00 0.05  
C108  1  0.6667  0.8205  1.0366  11.00 0.05  
C109  1  0.5667  0.6154  1.1463  11.00 0.05  
C110  1  0.3829  0.9231     1.0  11.00 0.05  
C111  1    0.45  0.2949  0.3902  11.00 0.05  
C112  1  0.1833  0.2179  0.6341  11.00 0.05  
C113  1     1.0  0.9359  1.2805  11.00 0.05  
C114  1  0.6833   0.859  0.8415  11.00 0.05  
C115  1  0.3833  0.5513   0.378  11.00 0.05  
C116  1  0.8333  1.1667  1.4878  11.00 0.05  
C117  1  0.9167  1.3205  1.3171  11.00 0.05  
C118  1  0.2167  0.2949  0.6098  11.00 0.05  
C119  1  0.9667  1.0256  1.0732  11.00 0.05  
C120  1  0.1667  0.1792  0.7561  11.00 0.05  
C121  1  0.3667     1.0  1.0854  11.00 0.05  
C122  1     0.4  0.7821  0.6341  11.00 0.05  
C123  1     0.9   1.141  1.1951  11.00 0.05  
C124  1  0.0833  0.6282  0.7195  11.00 0.05  
C125  1    0.95   0.859   1.061  11.00 0.05  
C126  1  0.4833  0.4487  0.6951  11.00 0.05  
C127  1  0.2667  0.4231  0.5244  11.00 0.05  
C128  1  0.8833  0.6667  1.1463  11.00 0.05  
C129  1    0.85  0.6923  0.5976  11.00 0.05  
C130  1  0.6833  0.9618  0.5366  11.00 0.05  
C131  1  0.8167  1.1026  1.3171  11.00 0.05  
C132  1  0.6833  0.8077  0.8902  11.00 0.05  
C133  1  0.9667  1.1798     1.0  11.00 0.05  
C134  1  1.0833  0.7692  0.9878  11.00 0.05  
C135  1 -0.0167  0.3846  0.8049  11.00 0.05  
C136  1    0.95  0.9744   1.122  11.00 0.05  
C137  1     0.6  0.7949   0.561  11.00 0.05  
C138  1  1.1333  0.9615  0.8293  11.00 0.05  
C139  1  0.1829  0.5253  0.3659  11.00 0.05  
C140  1  0.7333  0.5641  0.7195  11.00 0.05  
C141  1  0.4667  0.7051   0.622  11.00 0.05  
C142  1  0.5667  0.7308  0.5976  11.00 0.05  
C143  1  0.8833   1.141  1.4024  11.00 0.05  
C144  1     0.3  0.7436   0.561  11.00 0.05  
C145  1  0.3333  0.7308   1.122  11.00 0.05  
C146  1  0.8833  1.3974  1.3537  11.00 0.05  
C147  1     0.1  0.1407  0.5854  11.00 0.05  
C148  1    0.25  0.7436  1.2439  11.00 0.05  
C149  1  0.7167  1.1667  1.4756  11.00 0.05  
C150  1  0.9333  0.6026  1.1585  11.00 0.05  
C151  1  0.3667  0.9359  0.6707  11.00 0.05  
C152  1    0.95  0.6923   0.561  11.00 0.05  
C153  1    0.65  1.1285  1.3904  11.00 0.05  
C154  1  0.8005  0.4231  0.6341  11.00 0.05  
C155  1  1.0833  1.3333  1.0244  11.00 0.05  
C156  1  0.5329  0.2179  0.9756  11.00 0.05  





HKLF 4




REM  RAP119_0m_a.res in P-1
REM wR2 = 0.5797, GooF = S = 4.607, Restrained GooF = 4.607 for all data
REM R1 = 0.2570 for 19184 Fo > 4sig(Fo) and 0.3201 for all 26100 data
REM 626 parameters refined using 0 restraints

END 

 
WGHT      0.2000      0.0000 

REM Highest difference peak  3.202,  deepest hole -1.386,  1-sigma level  0.262



