TITL RAP119_0m_a.res in P-1
    a.res
    created by SHELXL-2019/1 at 14:39:44 on 22-Sep-2023
REM Old TITL RAP119_0m in P-1
REM SHELXT solution in P-1
REM R1 0.149,  Rweak 0.007,  Alpha 0.047,  Orientation as input
REM Formula found by SHELXT:  C80
CELL  1.54178  12.3439  15.9803  16.5748  114.131   90.728  103.241
ZERR    2.000   0.0003   0.0004   0.0004    0.001    0.001    0.001
LATT  -1
SFAC C H
UNIT 156 0
LIST 6
TEMP -123
SIZE 0.089 0.10 0.286
L.S. 0
BOND $H
FMAP 2
PLAN 250
WGHT    0.056200    0.636300
EXTI    0.003960
FVAR       0.15379
C1    1  0.1346  0.3429  0.7958  11.00 0.05 
C2    1   0.025    0.35  0.8127  11.00 0.05 
C3    1  0.0022  0.4335  0.8703  11.00 0.05 
C4    1  0.0905  0.5129  0.9158  11.00 0.05 
C5    1  0.1985  0.5091  0.8963  11.00 0.05 
C6    1   0.223  0.4267  0.8336  11.00 0.05 
C7    1  0.3389  0.4386  0.8051  11.00 0.05 
C8    1  0.4141  0.3879  0.8137  11.00 0.05 
C9    1  0.5167  0.3953  0.7771  11.00 0.05 
C10   1  0.5484  0.4594  0.7385  11.00 0.05 
C11   1  0.4798   0.519    0.74  11.00 0.05 
C12   1   0.374   0.507  0.7707  11.00 0.05 
C13   1  0.3963  0.3363  0.8719  11.00 0.05 
C14   1  0.4007  0.3903   0.963  11.00 0.05 
C15   1  0.4041  0.3506  1.0233  11.00 0.05 
C16   1  0.4003  0.2551  0.9924  11.00 0.05 
C17   1  0.3928  0.2002  0.9017  11.00 0.05 
C18   1   0.391  0.2399  0.8414  11.00 0.05 
C19   1   0.591  0.3334  0.7774  11.00 0.05 
C20   1  0.6464  0.3434  0.8559  11.00 0.05 
C21   1  0.7116  0.2825   0.854  11.00 0.05 
C22   1  0.7218  0.2112   0.774  11.00 0.05 
C23   1  0.6692  0.2016  0.6954  11.00 0.05 
C24   1  0.6046  0.2629  0.6968  11.00 0.05 
C25   1  0.6543  0.4646  0.6956  11.00 0.05 
C26   1  0.7584  0.4824  0.7417  11.00 0.05 
C27   1  0.8548  0.4832  0.6991  11.00 0.05 
C28   1  0.8477  0.4662  0.6101  11.00 0.05 
C29   1  0.7452    0.45  0.5638  11.00 0.05 
C30   1   0.649  0.4491  0.6064  11.00 0.05 
C31   1  0.5223  0.5993  0.7141  11.00 0.05 
C32   1  0.6191  0.6691  0.7621  11.00 0.05 
C33   1  0.6563  0.7482  0.7448  11.00 0.05 
C34   1  0.5977  0.7582   0.679  11.00 0.05 
C35   1  0.5032  0.6883  0.6296  11.00 0.05 
C36   1  0.4655  0.6092  0.6465  11.00 0.05 
C37   1  0.3033  0.5711  0.7682  11.00 0.05 
C38   1  0.3368  0.6678   0.824  11.00 0.05 
C39   1  0.2783  0.7294  0.8167  11.00 0.05 
C40   1  0.1867   0.696  0.7533  11.00 0.05 
C41   1  0.1517  0.5999  0.6986  11.00 0.05 
C42   1  0.2089  0.5373  0.7062  11.00 0.05 
C43   1  0.1494  0.2443  0.7464  11.00 0.05 
C44   1  0.1892  0.2146  0.6631  11.00 0.05 
C45   1  0.2117  0.1244  0.6236  11.00 0.05 
C46   1  0.1866  0.0619  0.6643  11.00 0.05 
C47   1  0.1332  0.0868  0.7422  11.00 0.05 
C48   1  0.1163  0.1786  0.7842  11.00 0.05 
C49   1  0.1943  0.2701  0.6087  11.00 0.05 
C50   1  0.2931  0.3083  0.5823  11.00 0.05 
C51   1  0.2893  0.3467  0.5211  11.00 0.05 
C52   1  0.1876  0.3465  0.4846  11.00 0.05 
C53   1  0.0886  0.3107  0.5117  11.00 0.05 
C54   1  0.0926  0.2741  0.5745  11.00 0.05 
C55   1  0.2629  0.0953  0.5381  11.00 0.05 
C56   1  0.3739  0.0903  0.5383  11.00 0.05 
C57   1  0.4233  0.0641  0.4597  11.00 0.05 
C58   1  0.3616  0.0414  0.3802  11.00 0.05 
C59   1  0.2506  0.0455  0.3791  11.00 0.05 
C60   1  0.2015  0.0724  0.4576  11.00 0.05 
C61   1  0.2183 -0.0306  0.6261  11.00 0.05 
C62   1  0.1751 -0.1001  0.5408  11.00 0.05 
C63   1   0.207 -0.1849  0.5077  11.00 0.05 
C64   1  0.2817  -0.201  0.5588  11.00 0.05 
C65   1  0.3251 -0.1332  0.6436  11.00 0.05 
C66   1  0.2938  -0.048   0.677  11.00 0.05 
C67   1  0.0912  0.0141  0.7775  11.00 0.05 
C68   1  0.1225  0.0292  0.8646  11.00 0.05 
C69   1  0.0779 -0.0388  0.8953  11.00 0.05 
C70   1  0.0017 -0.1227  0.8399  11.00 0.05 
C71   1  -0.029 -0.1392  0.7533  11.00 0.05 
C72   1  0.0154 -0.0716  0.7221  11.00 0.05 
C73   1  0.0603  0.2039  0.8676  11.00 0.05 
C74   1  0.1152   0.276  0.9483  11.00 0.05 
C75   1  0.0623  0.2972  1.0251  11.00 0.05 
C76   1 -0.0464  0.2481  1.0224  11.00 0.05 
C77   1 -0.1022  0.1762  0.9425  11.00 0.05 
C78   1 -0.0492  0.1537  0.8656  11.00 0.05 
C79   1  0.8654  0.6571  0.2042  11.00 0.05 
C80   1   0.975    0.65  0.1873  11.00 0.05 
C81   1  0.9978  0.5665  0.1297  11.00 0.05 
C82   1  0.9095  0.4871  0.0842  11.00 0.05 
C83   1  0.8015  0.4909  0.1037  11.00 0.05 
C84   1   0.777  0.5733  0.1664  11.00 0.05 
C85   1  0.6611  0.5614  0.1949  11.00 0.05 
C86   1  0.5859  0.6121  0.1863  11.00 0.05 
C87   1  0.4833  0.6047  0.2229  11.00 0.05 
C88   1  0.4516  0.5406  0.2615  11.00 0.05 
C89   1  0.5202   0.481    0.26  11.00 0.05 
C90   1   0.626   0.493  0.2293  11.00 0.05 
C91   1  0.6037  0.6637  0.1281  11.00 0.05 
C92   1  0.5993  0.6097   0.037  11.00 0.05 
C93   1  0.5959  0.6494 -0.0233  11.00 0.05 
C94   1  0.5997  0.7449  0.0076  11.00 0.05 
C95   1  0.6072  0.7998  0.0983  11.00 0.05 
C96   1   0.609  0.7601  0.1586  11.00 0.05 
C97   1   0.409  0.6666  0.2226  11.00 0.05 
C98   1  0.3536  0.6566  0.1441  11.00 0.05 
C99   1  0.2884  0.7175   0.146  11.00 0.05 
C100  1  0.2782  0.7888   0.226  11.00 0.05 
C101  1  0.3308  0.7984  0.3046  11.00 0.05 
C102  1  0.3954  0.7371  0.3032  11.00 0.05 
C103  1  0.3457  0.5354  0.3044  11.00 0.05 
C104  1  0.2416  0.5176  0.2583  11.00 0.05 
C105  1  0.1452  0.5168  0.3009  11.00 0.05 
C106  1  0.1523  0.5338  0.3899  11.00 0.05 
C107  1  0.2548    0.55  0.4362  11.00 0.05 
C108  1   0.351  0.5509  0.3936  11.00 0.05 
C109  1  0.4777  0.4007  0.2859  11.00 0.05 
C110  1  0.3809  0.3309  0.2379  11.00 0.05 
C111  1  0.3437  0.2518  0.2552  11.00 0.05 
C112  1  0.4023  0.2418   0.321  11.00 0.05 
C113  1  0.4968  0.3117  0.3704  11.00 0.05 
C114  1  0.5345  0.3908  0.3535  11.00 0.05 
C115  1  0.6967  0.4289  0.2318  11.00 0.05 
C116  1  0.6632  0.3322   0.176  11.00 0.05 
C117  1  0.7217  0.2706  0.1833  11.00 0.05 
C118  1  0.8133   0.304  0.2467  11.00 0.05 
C119  1  0.8483  0.4001  0.3014  11.00 0.05 
C120  1  0.7911  0.4627  0.2938  11.00 0.05 
C121  1  0.8506  0.7557  0.2536  11.00 0.05 
C122  1  0.8108  0.7854  0.3369  11.00 0.05 
C123  1  0.7883  0.8756  0.3764  11.00 0.05 
C124  1  0.8134  0.9381  0.3357  11.00 0.05 
C125  1  0.8668  0.9132  0.2577  11.00 0.05 
C126  1  0.8837  0.8214  0.2158  11.00 0.05 
C127  1  0.8057  0.7299  0.3913  11.00 0.05 
C128  1  0.7069  0.6917  0.4177  11.00 0.05 
C129  1  0.7107  0.6533  0.4789  11.00 0.05 
C130  1  0.8124  0.6535  0.5154  11.00 0.05 
C131  1  0.9114  0.6893  0.4883  11.00 0.05 
C132  1  0.9074  0.7259  0.4255  11.00 0.05 
C133  1  0.7371  0.9047  0.4619  11.00 0.05 
C134  1  0.6261  0.9097  0.4617  11.00 0.05 
C135  1  0.5767  0.9359  0.5403  11.00 0.05 
C136  1  0.6384  0.9586  0.6198  11.00 0.05 
C137  1  0.7494  0.9545  0.6209  11.00 0.05 
C138  1  0.7985  0.9276  0.5424  11.00 0.05 
C139  1  0.7817  1.0306  0.3739  11.00 0.05 
C140  1  0.8249  1.1001  0.4592  11.00 0.05 
C141  1   0.793  1.1849  0.4923  11.00 0.05 
C142  1  0.7183   1.201  0.4412  11.00 0.05 
C143  1  0.6749  1.1332  0.3564  11.00 0.05 
C144  1  0.7062   1.048   0.323  11.00 0.05 
C145  1  0.9088  0.9859  0.2225  11.00 0.05 
C146  1  0.8775  0.9708  0.1354  11.00 0.05 
C147  1  0.9221  1.0388  0.1047  11.00 0.05 
C148  1  0.9983  1.1227  0.1601  11.00 0.05 
C149  1   1.029  1.1392  0.2467  11.00 0.05 
C150  1  0.9846  1.0716  0.2779  11.00 0.05 
C151  1  0.9397  0.7961  0.1324  11.00 0.05 
C152  1  0.8848   0.724  0.0517  11.00 0.05 
C153  1  0.9377  0.7028 -0.0251  11.00 0.05 
C154  1  1.0464  0.7519 -0.0224  11.00 0.05 
C155  1  1.1022  0.8238  0.0575  11.00 0.05 
C156  1  1.0492  0.8463  0.1344  11.00 0.05 




HKLF 4




REM  RAP119_0m_a.res in P-1
REM wR2 = 0.5797, GooF = S = 4.607, Restrained GooF = 4.607 for all data
REM R1 = 0.2570 for 19184 Fo > 4sig(Fo) and 0.3201 for all 26100 data
REM 626 parameters refined using 0 restraints

END 
 
WGHT      0.2000      0.0000 

REM Highest difference peak  3.202,  deepest hole -1.386,  1-sigma level  0.262

