TITL jpd1249_0m_a.res in P2(1)
    a.res
    created by SHELXL-2019/1 at 13:56:37 on 22-Sep-2023
REM Old TITL JPD1249_0m in P2(1)
REM SHELXT solution in P2(1): R1 0.082, Rweak 0.027, Alpha 0.002
REM <I/s>   1.001 for    6 systematic absences,  Orientation as input
REM Flack x =  0.048 ( 0.024 ) from   970 Parsons' quotients
REM Formula found by SHELXT:  C12 O2 S2
CELL  0.71073   5.8637  10.3396  10.7376   90.000  104.500   90.000
ZERR    2.000   0.0003   0.0005   0.0006    0.000    0.002    0.000
LATT -1
SFAC   C   H   S   O
UNIT 24 0 4 4
TEMP -123
L.S. 0
BOND
LIST 6
FMAP 2
PLAN 20
WGHT    0.024200    0.058300
FVAR       0.97533
S1    3  0.3171  0.2516  0.3093  11.00 0.05
S2    3     1.0 -0.2497  0.6638  11.00 0.05
S3    3  0.6615 -0.2207  0.8368  11.00 0.05
S4    3  0.6429  0.2793  0.1346  11.00 0.05
O5    4  0.7149 -0.3028  0.5662  11.00 0.05
C6    1  0.3167 -0.2402  0.4198  11.00 0.05
C7    1  0.5381  -0.205   0.506  11.00 0.05
C8    1 -0.0633 -0.1731  0.3034  11.00 0.05
C9    1  0.1371 -0.1429  0.3744  11.00 0.05
C10   1  0.2585 -0.3682  0.3743  11.00 0.05
C11   1 -0.1194 -0.2991  0.2587  11.00 0.05
C12   1  0.6016 -0.0848  0.5272  11.00 0.05
C13   1  0.0417 -0.3976  0.3036  11.00 0.05
O14   4  0.7092  0.4108   0.448  11.00 0.05
C15   1  0.9933    0.26  0.5553  11.00 0.05
C16   1  0.7623   0.298  0.4678  11.00 0.05
C17   1  1.2656   0.105  0.6758  11.00 0.05
C18   1  1.0476  0.1336  0.5953  11.00 0.05
C19   1  1.1603  0.3574   0.597  11.00 0.05
C20   1  1.4294   0.201  0.7164  11.00 0.05
C21   1  0.5969  0.1908   0.404  11.00 0.05
C22   1   1.377  0.3282  0.6772  11.00 0.05
O23   4  1.1009 -0.1422  0.8788  11.00 0.05
C24   1  0.9152  -0.196  0.8088  11.00 0.05
C25   1  1.0997   -0.09   1.004  11.00 0.05
C26   1  1.3633   -0.09  1.0789  11.00 0.05
C27   1  0.9939  0.0429  0.9837  11.00 0.05
O28   4  0.2001  0.3603  0.0954  11.00 0.05
C29   1  0.3835  0.3029  0.1719  11.00 0.05
C30   1  0.2154  0.4132  -0.029  11.00 0.05
C31   1 -0.0462  0.4161 -0.1115  11.00 0.05
C32   1  0.3085  0.5497  -0.006  11.00 0.05


HKLF 4




REM  jpd1249_0m_a.res in P2(1)
REM wR2 = 0.3931, GooF = S = 3.332, Restrained GooF = 3.332 for all data
REM R1 = 0.3110 for 4116 Fo > 4sig(Fo) and 0.3127 for all 4432 data
REM 129 parameters refined using 0 restraints

END 
 
WGHT      0.2000      0.0000 

REM Highest difference peak  4.238,  deepest hole -2.250,  1-sigma level  0.240

























