TITL jpd1252_0m_a.res in C2/c
REM Old TITL JPD1252_0m in C2/c
REM SHELXT solution in C2/c: R1 0.129, Rweak 0.001, Alpha 0.030
REM <I/s>   0.258 for  220 systematic absences,  Orientation as input
REM Formula found by SHELXT:  C29 Mo N2 O5 Si

CELL 0.71073 19.016 19.016 19.9976 110.522 110.522 31.168
ZERR    8.000   0.0031   0.0008   0.0018    0.000    0.002    0.000
LATT  -1
SFAC C H Mo Si O N 
UNIT 240 424 8 8 16 32 8 8
TEMP 0
L.S. 0
BOND
LIST 6
FMAP 2
PLAN 5
FVAR 0.5
N1    6     0.3     0.3     0.3  11.00 0.05
C2    1  0.2391  0.4244     0.3  11.00 0.05
C3    1   0.087  0.5489     0.3  11.00 0.05
C4    1  0.0261  0.6733     0.3  11.00 0.05
C5    1   0.452  0.1756     0.3  11.00 0.05
C6    1   0.513  0.0511     0.3  11.00 0.05
C7    1   0.665 -0.0733     0.3  11.00 0.05
C8    1  0.2675  0.3131  0.3658  11.00 0.05
C9    1  0.3261  0.3261  0.4315  11.00 0.05
C10   1  0.2936  0.3392  0.4973  11.00 0.05
C11   1  0.2414  0.2869  0.2342  11.00 0.05
C12   1  0.2739  0.2739  0.1685  11.00 0.05
C13   1  0.2153  0.2608  0.1027  11.00 0.05


HKLF 4
END












REM 




















